\ LP format - for model browsing. Use MPS format to capture full model detail.
Minimize
 
Subject To
 cc(0,0): x(0,0) + x(0,1) + x(0,2) + x(0,3) = 1
 cc(0,1): x(1,0) + x(1,1) + x(1,2) + x(1,3) = 1
 cc(0,2): x(2,0) + x(2,1) + x(2,2) + x(2,3) = 1
 cc(0,3): x(3,0) + x(3,1) + x(3,2) + x(3,3) = 1
 cc(0,4): x(4,0) + x(4,1) + x(4,2) + x(4,3) = 1
 cc(0,5): x(5,0) + x(5,1) + x(5,2) + x(5,3) = 1
 cc(0,6): x(6,0) + x(6,1) + x(6,2) + x(6,3) = 1
 cc(0,7): x(7,0) + x(7,1) + x(7,2) + x(7,3) = 1
 cc(1,0): x(0,0) + x(1,0) + x(2,0) + x(3,0) + x(4,0) + x(5,0) + x(6,0)
   + x(7,0) >= 1
 cc(1,1): x(0,1) + x(1,1) + x(2,1) + x(3,1) + x(4,1) + x(5,1) + x(6,1)
   + x(7,1) >= 1
 cc(1,2): x(0,2) + x(1,2) + x(2,2) + x(3,2) + x(4,2) + x(5,2) + x(6,2)
   + x(7,2) >= 1
 cc(1,3): x(0,3) + x(1,3) + x(2,3) + x(3,3) + x(4,3) + x(5,3) + x(6,3)
   + x(7,3) >= 1
 cc(2,0): z(0,0) + z(0,1) + z(0,2) + z(0,3) >= 1
 cc(2,1): z(1,0) + z(1,1) + z(1,2) + z(1,3) >= 1
 cc(2,2): z(2,0) + z(2,1) + z(2,2) + z(2,3) >= 1
 cc(2,3): z(3,0) + z(3,1) + z(3,2) + z(3,3) >= 1
 cc(2,4): z(4,0) + z(4,1) + z(4,2) + z(4,3) >= 1
 cc(2,5): z(5,0) + z(5,1) + z(5,2) + z(5,3) >= 1
 cc(3,0,0): x(7,0) + z(0,0) >= 1
 cc(4,0,0): x(7,0) + 8 z(0,0) <= 8
 cc(3,0,1): x(7,1) + z(0,1) >= 1
 cc(4,0,1): x(7,1) + 8 z(0,1) <= 8
 cc(3,0,2): x(7,2) + z(0,2) >= 1
 cc(4,0,2): x(7,2) + 8 z(0,2) <= 8
 cc(3,0,3): x(7,3) + z(0,3) >= 1
 cc(4,0,3): x(7,3) + 8 z(0,3) <= 8
 cc(3,1,0): x(0,0) + x(5,0) + z(1,0) >= 1
 cc(4,1,0): x(0,0) + x(5,0) + 8 z(1,0) <= 8
 cc(3,1,1): x(0,1) + x(5,1) + z(1,1) >= 1
 cc(4,1,1): x(0,1) + x(5,1) + 8 z(1,1) <= 8
 cc(3,1,2): x(0,2) + x(5,2) + z(1,2) >= 1
 cc(4,1,2): x(0,2) + x(5,2) + 8 z(1,2) <= 8
 cc(3,1,3): x(0,3) + x(5,3) + z(1,3) >= 1
 cc(4,1,3): x(0,3) + x(5,3) + 8 z(1,3) <= 8
 cc(3,2,0): x(1,0) + x(2,0) + x(3,0) + z(2,0) >= 1
 cc(4,2,0): x(1,0) + x(2,0) + x(3,0) + 8 z(2,0) <= 8
 cc(3,2,1): x(1,1) + x(2,1) + x(3,1) + z(2,1) >= 1
 cc(4,2,1): x(1,1) + x(2,1) + x(3,1) + 8 z(2,1) <= 8
 cc(3,2,2): x(1,2) + x(2,2) + x(3,2) + z(2,2) >= 1
 cc(4,2,2): x(1,2) + x(2,2) + x(3,2) + 8 z(2,2) <= 8
 cc(3,2,3): x(1,3) + x(2,3) + x(3,3) + z(2,3) >= 1
 cc(4,2,3): x(1,3) + x(2,3) + x(3,3) + 8 z(2,3) <= 8
 cc(3,3,0): x(0,0) + x(1,0) + x(3,0) + x(6,0) + z(3,0) >= 1
 cc(4,3,0): x(0,0) + x(1,0) + x(3,0) + x(6,0) + 8 z(3,0) <= 8
 cc(3,3,1): x(0,1) + x(1,1) + x(3,1) + x(6,1) + z(3,1) >= 1
 cc(4,3,1): x(0,1) + x(1,1) + x(3,1) + x(6,1) + 8 z(3,1) <= 8
 cc(3,3,2): x(0,2) + x(1,2) + x(3,2) + x(6,2) + z(3,2) >= 1
 cc(4,3,2): x(0,2) + x(1,2) + x(3,2) + x(6,2) + 8 z(3,2) <= 8
 cc(3,3,3): x(0,3) + x(1,3) + x(3,3) + x(6,3) + z(3,3) >= 1
 cc(4,3,3): x(0,3) + x(1,3) + x(3,3) + x(6,3) + 8 z(3,3) <= 8
 cc(3,4,0): x(0,0) + x(1,0) + x(2,0) + x(3,0) + x(4,0) + x(5,0) + x(6,0)
   + x(7,0) + z(4,0) >= 1
 cc(4,4,0): x(0,0) + x(1,0) + x(2,0) + x(3,0) + x(4,0) + x(5,0) + x(6,0)
   + x(7,0) + 8 z(4,0) <= 8
 cc(3,4,1): x(0,1) + x(1,1) + x(2,1) + x(3,1) + x(4,1) + x(5,1) + x(6,1)
   + x(7,1) + z(4,1) >= 1
 cc(4,4,1): x(0,1) + x(1,1) + x(2,1) + x(3,1) + x(4,1) + x(5,1) + x(6,1)
   + x(7,1) + 8 z(4,1) <= 8
 cc(3,4,2): x(0,2) + x(1,2) + x(2,2) + x(3,2) + x(4,2) + x(5,2) + x(6,2)
   + x(7,2) + z(4,2) >= 1
 cc(4,4,2): x(0,2) + x(1,2) + x(2,2) + x(3,2) + x(4,2) + x(5,2) + x(6,2)
   + x(7,2) + 8 z(4,2) <= 8
 cc(3,4,3): x(0,3) + x(1,3) + x(2,3) + x(3,3) + x(4,3) + x(5,3) + x(6,3)
   + x(7,3) + z(4,3) >= 1
 cc(4,4,3): x(0,3) + x(1,3) + x(2,3) + x(3,3) + x(4,3) + x(5,3) + x(6,3)
   + x(7,3) + 8 z(4,3) <= 8
 cc(3,5,0): x(1,0) + x(2,0) + z(5,0) >= 1
 cc(4,5,0): x(1,0) + x(2,0) + 8 z(5,0) <= 8
 cc(3,5,1): x(1,1) + x(2,1) + z(5,1) >= 1
 cc(4,5,1): x(1,1) + x(2,1) + 8 z(5,1) <= 8
 cc(3,5,2): x(1,2) + x(2,2) + z(5,2) >= 1
 cc(4,5,2): x(1,2) + x(2,2) + 8 z(5,2) <= 8
 cc(3,5,3): x(1,3) + x(2,3) + z(5,3) >= 1
 cc(4,5,3): x(1,3) + x(2,3) + 8 z(5,3) <= 8
Bounds
Binaries
 x(0,0) x(0,1) x(0,2) x(0,3) x(1,0) x(1,1) x(1,2) x(1,3) x(2,0) x(2,1)
 x(2,2) x(2,3) x(3,0) x(3,1) x(3,2) x(3,3) x(4,0) x(4,1) x(4,2) x(4,3)
 x(5,0) x(5,1) x(5,2) x(5,3) x(6,0) x(6,1) x(6,2) x(6,3) x(7,0) x(7,1)
 x(7,2) x(7,3) z(0,0) z(0,1) z(0,2) z(0,3) z(1,0) z(1,1) z(1,2) z(1,3)
 z(2,0) z(2,1) z(2,2) z(2,3) z(3,0) z(3,1) z(3,2) z(3,3) z(4,0) z(4,1)
 z(4,2) z(4,3) z(5,0) z(5,1) z(5,2) z(5,3)
End
